ATSPTW_Problem.lp
\ENCODING=ISO-8859-1
\Problem name: ilog.cplex

Minimize
 obj: t(8)#0
Subject To
 c1:   t(1)#1 - 5.5 y(0)(1)#2 >= 0
 c3:   t(2)#3 - 4.2 y(0)(2)#4 >= 0
 c5:   t(3)#5 - 2.6 y(0)(3)#6 >= 0
 c7:   t(4)#7 - 2.4 y(0)(4)#8 >= 0
 c9:   t(5)#9 - 1.3 y(0)(5)#10 >= 0
 c11:  t(6)#11 - 2.5 y(0)(6)#12 >= 0
 c13:  t(7)#13 - 4.3 y(0)(7)#14 >= 0
 c15:  - t(1)#1 + 1005.5 y(0)(1)#2 + t(0)#15 >= 1000
 c17:  - t(2)#3 + 1004.2 y(0)(2)#4 + t(0)#15 >= 1000
 c19:  - t(3)#5 + 1002.6 y(0)(3)#6 + t(0)#15 >= 1000
 c21:  - t(4)#7 + 1002.4 y(0)(4)#8 + t(0)#15 >= 1000
 c23:  - t(5)#9 + 1001.3 y(0)(5)#10 + t(0)#15 >= 1000
 c25:  - t(6)#11 + 1002.5 y(0)(6)#12 + t(0)#15 >= 1000
 c27:  - t(7)#13 + 1004.3 y(0)(7)#14 + t(0)#15 >= 1000
 c29:  t(1)#1 - t(0)#15 + 1004.7 y(1)(0)#16 >= 1000
 c31:  t(1)#1 - t(2)#3 + 1003.7 y(1)(2)#17 >= 1000
 c33:  t(1)#1 - t(3)#5 + 1002.1 y(1)(3)#18 >= 1000
 c35:  t(1)#1 - t(4)#7 + 1005.1 y(1)(4)#19 >= 1000
 c37:  t(1)#1 - t(5)#9 + 1006 y(1)(5)#20 >= 1000
 c39:  t(1)#1 - t(6)#11 + 1007.2 y(1)(6)#21 >= 1000
 c41:  t(1)#1 - t(7)#13 + 1009 y(1)(7)#22 >= 1000
 c43:  t(2)#3 - t(0)#15 + 1004.2 y(2)(0)#23 >= 1000
 c45:  - t(1)#1 + t(2)#3 + 1004.5 y(2)(1)#24 >= 1000
 c47:  t(2)#3 - t(3)#5 + 1001.6 y(2)(3)#25 >= 1000
 c49:  t(2)#3 - t(4)#7 + 1003.2 y(2)(4)#26 >= 1000
 c51:  t(2)#3 - t(5)#9 + 1005.5 y(2)(5)#27 >= 1000
 c53:  t(2)#3 - t(6)#11 + 1006.7 y(2)(6)#28 >= 1000
 c55:  t(2)#3 - t(7)#13 + 1008.5 y(2)(7)#29 >= 1000
 c57:  t(3)#5 - t(0)#15 + 1002.6 y(3)(0)#30 >= 1000
 c59:  - t(1)#1 + t(3)#5 + 1002.9 y(3)(1)#31 >= 1000
 c61:  - t(2)#3 + t(3)#5 + 1001.6 y(3)(2)#32 >= 1000
 c63:  t(3)#5 - t(4)#7 + 1003 y(3)(4)#33 >= 1000
 c65:  t(3)#5 - t(5)#9 + 1003.9 y(3)(5)#34 >= 1000
 c67:  t(3)#5 - t(6)#11 + 1005.1 y(3)(6)#35 >= 1000
 c69:  t(3)#5 - t(7)#13 + 1006.9 y(3)(7)#36 >= 1000
 c71:  t(4)#7 - t(0)#15 + 1003.8 y(4)(0)#37 >= 1000
 c73:  - t(1)#1 + t(4)#7 + 1004.1 y(4)(1)#38 >= 1000
 c75:  - t(2)#3 + t(4)#7 + 1002.8 y(4)(2)#39 >= 1000
 c77:  - t(3)#5 + t(4)#7 + 1001.2 y(4)(3)#40 >= 1000
 c79:  t(4)#7 - t(5)#9 + 1005.1 y(4)(5)#41 >= 1000
 c81:  t(4)#7 - t(6)#11 + 1006.3 y(4)(6)#42 >= 1000
 c83:  t(4)#7 - t(7)#13 + 1008.1 y(4)(7)#43 >= 1000
 c85:  t(5)#9 - t(0)#15 + 1003.9 y(5)(0)#44 >= 1000
 c87:  - t(1)#1 + t(5)#9 + 1007.4 y(5)(1)#45 >= 1000
 c89:  - t(2)#3 + t(5)#9 + 1006.1 y(5)(2)#46 >= 1000
 c91:  - t(3)#5 + t(5)#9 + 1004.5 y(5)(3)#47 >= 1000
 c93:  - t(4)#7 + t(5)#9 + 1003.3 y(5)(4)#48 >= 1000
 c95:  t(5)#9 - t(6)#11 + 1001.2 y(5)(6)#49 >= 1000
 c97:  t(5)#9 - t(7)#13 + 1003 y(5)(7)#50 >= 1000
 c99:  t(6)#11 - t(0)#15 + 1003.5 y(6)(0)#51 >= 1000
 c101: - t(1)#1 + t(6)#11 + 1007 y(6)(1)#52 >= 1000
 c103: - t(2)#3 + t(6)#11 + 1005.7 y(6)(2)#53 >= 1000
 c105: - t(3)#5 + t(6)#11 + 1004.1 y(6)(3)#54 >= 1000
 c107: - t(4)#7 + t(6)#11 + 1002.9 y(6)(4)#55 >= 1000
 c109: - t(5)#9 + t(6)#11 + 1001.2 y(6)(5)#56 >= 1000
 c111: t(6)#11 - t(7)#13 + 1002.3 y(6)(7)#57 >= 1000
 c113: t(7)#13 - t(0)#15 + 1005.8 y(7)(0)#58 >= 1000
 c115: - t(1)#1 + t(7)#13 + 1009.3 y(7)(1)#59 >= 1000
 c117: - t(2)#3 + t(7)#13 + 1008 y(7)(2)#60 >= 1000
 c119: - t(3)#5 + t(7)#13 + 1006.4 y(7)(3)#61 >= 1000
 c121: - t(4)#7 + t(7)#13 + 1005.2 y(7)(4)#62 >= 1000
 c123: - t(5)#9 + t(7)#13 + 1003 y(7)(5)#63 >= 1000
 c125: - t(6)#11 + t(7)#13 + 1002.3 y(7)(6)#64 >= 1000
 c127: y(0)(1)#2  = 1
 c129: y(0)(1)#2 + y(1)(1)#65  = 1
 c131: y(0)(1)#2 + y(2)(1)#24 + y(1)(1)#65  = 1
 c133: y(0)(1)#2 + y(2)(1)#24 + y(3)(1)#31 + y(1)(1)#65  = 1
 c135: y(0)(1)#2 + y(2)(1)#24 + y(3)(1)#31 + y(4)(1)#38 + y(1)(1)#65  = 1
 c137: y(0)(1)#2 + y(2)(1)#24 + y(3)(1)#31 + y(4)(1)#38 + y(5)(1)#45
       + y(1)(1)#65  = 1
 c139: y(0)(1)#2 + y(2)(1)#24 + y(3)(1)#31 + y(4)(1)#38 + y(5)(1)#45
       + y(6)(1)#52 + y(1)(1)#65  = 1
 c141: y(0)(1)#2 + y(2)(1)#24 + y(3)(1)#31 + y(4)(1)#38 + y(5)(1)#45
       + y(6)(1)#52 + y(7)(1)#59 + y(1)(1)#65  = 1
 c143: y(0)(2)#4  = 1
 c145: y(0)(2)#4 + y(1)(2)#17  = 1
 c147: y(0)(2)#4 + y(1)(2)#17 + y(2)(2)#66  = 1
 c149: y(0)(2)#4 + y(1)(2)#17 + y(3)(2)#32 + y(2)(2)#66  = 1
 c151: y(0)(2)#4 + y(1)(2)#17 + y(3)(2)#32 + y(4)(2)#39 + y(2)(2)#66  = 1
 c153: y(0)(2)#4 + y(1)(2)#17 + y(3)(2)#32 + y(4)(2)#39 + y(5)(2)#46
       + y(2)(2)#66  = 1
 c155: y(0)(2)#4 + y(1)(2)#17 + y(3)(2)#32 + y(4)(2)#39 + y(5)(2)#46
       + y(6)(2)#53 + y(2)(2)#66  = 1
 c157: y(0)(2)#4 + y(1)(2)#17 + y(3)(2)#32 + y(4)(2)#39 + y(5)(2)#46
       + y(6)(2)#53 + y(7)(2)#60 + y(2)(2)#66  = 1
 c159: y(0)(3)#6  = 1
 c161: y(0)(3)#6 + y(1)(3)#18  = 1
 c163: y(0)(3)#6 + y(1)(3)#18 + y(2)(3)#25  = 1
 c165: y(0)(3)#6 + y(1)(3)#18 + y(2)(3)#25 + y(3)(3)#67  = 1
 c167: y(0)(3)#6 + y(1)(3)#18 + y(2)(3)#25 + y(4)(3)#40 + y(3)(3)#67  = 1
 c169: y(0)(3)#6 + y(1)(3)#18 + y(2)(3)#25 + y(4)(3)#40 + y(5)(3)#47
       + y(3)(3)#67  = 1
 c171: y(0)(3)#6 + y(1)(3)#18 + y(2)(3)#25 + y(4)(3)#40 + y(5)(3)#47
       + y(6)(3)#54 + y(3)(3)#67  = 1
 c173: y(0)(3)#6 + y(1)(3)#18 + y(2)(3)#25 + y(4)(3)#40 + y(5)(3)#47
       + y(6)(3)#54 + y(7)(3)#61 + y(3)(3)#67  = 1
 c175: y(0)(4)#8  = 1
 c177: y(0)(4)#8 + y(1)(4)#19  = 1
 c179: y(0)(4)#8 + y(1)(4)#19 + y(2)(4)#26  = 1
 c181: y(0)(4)#8 + y(1)(4)#19 + y(2)(4)#26 + y(3)(4)#33  = 1
 c183: y(0)(4)#8 + y(1)(4)#19 + y(2)(4)#26 + y(3)(4)#33 + y(4)(4)#68  = 1
 c185: y(0)(4)#8 + y(1)(4)#19 + y(2)(4)#26 + y(3)(4)#33 + y(5)(4)#48
       + y(4)(4)#68  = 1
 c187: y(0)(4)#8 + y(1)(4)#19 + y(2)(4)#26 + y(3)(4)#33 + y(5)(4)#48
       + y(6)(4)#55 + y(4)(4)#68  = 1
 c189: y(0)(4)#8 + y(1)(4)#19 + y(2)(4)#26 + y(3)(4)#33 + y(5)(4)#48
       + y(6)(4)#55 + y(7)(4)#62 + y(4)(4)#68  = 1
 c191: y(0)(5)#10  = 1
 c193: y(0)(5)#10 + y(1)(5)#20  = 1
 c195: y(0)(5)#10 + y(1)(5)#20 + y(2)(5)#27  = 1
 c197: y(0)(5)#10 + y(1)(5)#20 + y(2)(5)#27 + y(3)(5)#34  = 1
 c199: y(0)(5)#10 + y(1)(5)#20 + y(2)(5)#27 + y(3)(5)#34 + y(4)(5)#41  = 1
 c201: y(0)(5)#10 + y(1)(5)#20 + y(2)(5)#27 + y(3)(5)#34 + y(4)(5)#41
       + y(5)(5)#69  = 1
 c203: y(0)(5)#10 + y(1)(5)#20 + y(2)(5)#27 + y(3)(5)#34 + y(4)(5)#41
       + y(6)(5)#56 + y(5)(5)#69  = 1
 c205: y(0)(5)#10 + y(1)(5)#20 + y(2)(5)#27 + y(3)(5)#34 + y(4)(5)#41
       + y(6)(5)#56 + y(7)(5)#63 + y(5)(5)#69  = 1
 c207: y(0)(6)#12  = 1
 c209: y(0)(6)#12 + y(1)(6)#21  = 1
 c211: y(0)(6)#12 + y(1)(6)#21 + y(2)(6)#28  = 1
 c213: y(0)(6)#12 + y(1)(6)#21 + y(2)(6)#28 + y(3)(6)#35  = 1
 c215: y(0)(6)#12 + y(1)(6)#21 + y(2)(6)#28 + y(3)(6)#35 + y(4)(6)#42  = 1
 c217: y(0)(6)#12 + y(1)(6)#21 + y(2)(6)#28 + y(3)(6)#35 + y(4)(6)#42
       + y(5)(6)#49  = 1
 c219: y(0)(6)#12 + y(1)(6)#21 + y(2)(6)#28 + y(3)(6)#35 + y(4)(6)#42
       + y(5)(6)#49 + y(6)(6)#70  = 1
 c221: y(0)(6)#12 + y(1)(6)#21 + y(2)(6)#28 + y(3)(6)#35 + y(4)(6)#42
       + y(5)(6)#49 + y(7)(6)#64 + y(6)(6)#70  = 1
 c223: y(0)(7)#14  = 1
 c225: y(0)(7)#14 + y(1)(7)#22  = 1
 c227: y(0)(7)#14 + y(1)(7)#22 + y(2)(7)#29  = 1
 c229: y(0)(7)#14 + y(1)(7)#22 + y(2)(7)#29 + y(3)(7)#36  = 1
 c231: y(0)(7)#14 + y(1)(7)#22 + y(2)(7)#29 + y(3)(7)#36 + y(4)(7)#43  = 1
 c233: y(0)(7)#14 + y(1)(7)#22 + y(2)(7)#29 + y(3)(7)#36 + y(4)(7)#43
       + y(5)(7)#50  = 1
 c235: y(0)(7)#14 + y(1)(7)#22 + y(2)(7)#29 + y(3)(7)#36 + y(4)(7)#43
       + y(5)(7)#50 + y(6)(7)#57  = 1
 c237: y(0)(7)#14 + y(1)(7)#22 + y(2)(7)#29 + y(3)(7)#36 + y(4)(7)#43
       + y(5)(7)#50 + y(6)(7)#57 + y(7)(7)#71  = 1
 c239: y(1)(0)#16  = 1
 c241: y(1)(0)#16 + y(1)(1)#65  = 1
 c243: y(1)(0)#16 + y(1)(2)#17 + y(1)(1)#65  = 1
 c245: y(1)(0)#16 + y(1)(2)#17 + y(1)(3)#18 + y(1)(1)#65  = 1
 c247: y(1)(0)#16 + y(1)(2)#17 + y(1)(3)#18 + y(1)(4)#19 + y(1)(1)#65  = 1
 c249: y(1)(0)#16 + y(1)(2)#17 + y(1)(3)#18 + y(1)(4)#19 + y(1)(5)#20
       + y(1)(1)#65  = 1
 c251: y(1)(0)#16 + y(1)(2)#17 + y(1)(3)#18 + y(1)(4)#19 + y(1)(5)#20
       + y(1)(6)#21 + y(1)(1)#65  = 1
 c253: y(1)(0)#16 + y(1)(2)#17 + y(1)(3)#18 + y(1)(4)#19 + y(1)(5)#20
       + y(1)(6)#21 + y(1)(7)#22 + y(1)(1)#65  = 1
 c255: y(2)(0)#23  = 1
 c257: y(2)(0)#23 + y(2)(1)#24  = 1
 c259: y(2)(0)#23 + y(2)(1)#24 + y(2)(2)#66  = 1
 c261: y(2)(0)#23 + y(2)(1)#24 + y(2)(3)#25 + y(2)(2)#66  = 1
 c263: y(2)(0)#23 + y(2)(1)#24 + y(2)(3)#25 + y(2)(4)#26 + y(2)(2)#66  = 1
 c265: y(2)(0)#23 + y(2)(1)#24 + y(2)(3)#25 + y(2)(4)#26 + y(2)(5)#27
       + y(2)(2)#66  = 1
 c267: y(2)(0)#23 + y(2)(1)#24 + y(2)(3)#25 + y(2)(4)#26 + y(2)(5)#27
       + y(2)(6)#28 + y(2)(2)#66  = 1
 c269: y(2)(0)#23 + y(2)(1)#24 + y(2)(3)#25 + y(2)(4)#26 + y(2)(5)#27
       + y(2)(6)#28 + y(2)(7)#29 + y(2)(2)#66  = 1
 c271: y(3)(0)#30  = 1
 c273: y(3)(0)#30 + y(3)(1)#31  = 1
 c275: y(3)(0)#30 + y(3)(1)#31 + y(3)(2)#32  = 1
 c277: y(3)(0)#30 + y(3)(1)#31 + y(3)(2)#32 + y(3)(3)#67  = 1
 c279: y(3)(0)#30 + y(3)(1)#31 + y(3)(2)#32 + y(3)(4)#33 + y(3)(3)#67  = 1
 c281: y(3)(0)#30 + y(3)(1)#31 + y(3)(2)#32 + y(3)(4)#33 + y(3)(5)#34
       + y(3)(3)#67  = 1
 c283: y(3)(0)#30 + y(3)(1)#31 + y(3)(2)#32 + y(3)(4)#33 + y(3)(5)#34
       + y(3)(6)#35 + y(3)(3)#67  = 1
 c285: y(3)(0)#30 + y(3)(1)#31 + y(3)(2)#32 + y(3)(4)#33 + y(3)(5)#34
       + y(3)(6)#35 + y(3)(7)#36 + y(3)(3)#67  = 1
 c287: y(4)(0)#37  = 1
 c289: y(4)(0)#37 + y(4)(1)#38  = 1
 c291: y(4)(0)#37 + y(4)(1)#38 + y(4)(2)#39  = 1
 c293: y(4)(0)#37 + y(4)(1)#38 + y(4)(2)#39 + y(4)(3)#40  = 1
 c295: y(4)(0)#37 + y(4)(1)#38 + y(4)(2)#39 + y(4)(3)#40 + y(4)(4)#68  = 1
 c297: y(4)(0)#37 + y(4)(1)#38 + y(4)(2)#39 + y(4)(3)#40 + y(4)(5)#41
       + y(4)(4)#68  = 1
 c299: y(4)(0)#37 + y(4)(1)#38 + y(4)(2)#39 + y(4)(3)#40 + y(4)(5)#41
       + y(4)(6)#42 + y(4)(4)#68  = 1
 c301: y(4)(0)#37 + y(4)(1)#38 + y(4)(2)#39 + y(4)(3)#40 + y(4)(5)#41
       + y(4)(6)#42 + y(4)(7)#43 + y(4)(4)#68  = 1
 c303: y(5)(0)#44  = 1
 c305: y(5)(0)#44 + y(5)(1)#45  = 1
 c307: y(5)(0)#44 + y(5)(1)#45 + y(5)(2)#46  = 1
 c309: y(5)(0)#44 + y(5)(1)#45 + y(5)(2)#46 + y(5)(3)#47  = 1
 c311: y(5)(0)#44 + y(5)(1)#45 + y(5)(2)#46 + y(5)(3)#47 + y(5)(4)#48  = 1
 c313: y(5)(0)#44 + y(5)(1)#45 + y(5)(2)#46 + y(5)(3)#47 + y(5)(4)#48
       + y(5)(5)#69  = 1
 c315: y(5)(0)#44 + y(5)(1)#45 + y(5)(2)#46 + y(5)(3)#47 + y(5)(4)#48
       + y(5)(6)#49 + y(5)(5)#69  = 1
 c317: y(5)(0)#44 + y(5)(1)#45 + y(5)(2)#46 + y(5)(3)#47 + y(5)(4)#48
       + y(5)(6)#49 + y(5)(7)#50 + y(5)(5)#69  = 1
 c319: y(6)(0)#51  = 1
 c321: y(6)(0)#51 + y(6)(1)#52  = 1
 c323: y(6)(0)#51 + y(6)(1)#52 + y(6)(2)#53  = 1
 c325: y(6)(0)#51 + y(6)(1)#52 + y(6)(2)#53 + y(6)(3)#54  = 1
 c327: y(6)(0)#51 + y(6)(1)#52 + y(6)(2)#53 + y(6)(3)#54 + y(6)(4)#55  = 1
 c329: y(6)(0)#51 + y(6)(1)#52 + y(6)(2)#53 + y(6)(3)#54 + y(6)(4)#55
       + y(6)(5)#56  = 1
 c331: y(6)(0)#51 + y(6)(1)#52 + y(6)(2)#53 + y(6)(3)#54 + y(6)(4)#55
       + y(6)(5)#56 + y(6)(6)#70  = 1
 c333: y(6)(0)#51 + y(6)(1)#52 + y(6)(2)#53 + y(6)(3)#54 + y(6)(4)#55
       + y(6)(5)#56 + y(6)(7)#57 + y(6)(6)#70  = 1
 c335: y(7)(0)#58  = 1
 c337: y(7)(0)#58 + y(7)(1)#59  = 1
 c339: y(7)(0)#58 + y(7)(1)#59 + y(7)(2)#60  = 1
 c341: y(7)(0)#58 + y(7)(1)#59 + y(7)(2)#60 + y(7)(3)#61  = 1
 c343: y(7)(0)#58 + y(7)(1)#59 + y(7)(2)#60 + y(7)(3)#61 + y(7)(4)#62  = 1
 c345: y(7)(0)#58 + y(7)(1)#59 + y(7)(2)#60 + y(7)(3)#61 + y(7)(4)#62
       + y(7)(5)#63  = 1
 c347: y(7)(0)#58 + y(7)(1)#59 + y(7)(2)#60 + y(7)(3)#61 + y(7)(4)#62
       + y(7)(5)#63 + y(7)(6)#64  = 1
 c349: y(7)(0)#58 + y(7)(1)#59 + y(7)(2)#60 + y(7)(3)#61 + y(7)(4)#62
       + y(7)(5)#63 + y(7)(6)#64 + y(7)(7)#71  = 1
 c351: - t(8)#0 + t(1)#1 <= -4.7
 c353: - t(8)#0 + t(2)#3 <= -4.2
 c355: - t(8)#0 + t(3)#5 <= -2.6
 c357: - t(8)#0 + t(4)#7 <= -3.8
 c359: - t(8)#0 + t(5)#9 <= -3.9
 c361: - t(8)#0 + t(6)#11 <= -3.5
 c363: - t(8)#0 + t(7)#13 <= -5.8
 c365: t(1)#1 >= 0
 c367: t(2)#3 >= 0
 c369: t(3)#5 >= 0
 c371: t(4)#7 >= 0
 c373: t(5)#9 >= 0
 c375: t(6)#11 >= 0
 c377: t(7)#13 >= 0
 c379: t(1)#1 <= 1000
 c381: t(2)#3 <= 1000
 c383: t(3)#5 <= 1000
 c385: t(4)#7 <= 1000
 c387: t(5)#9 <= 1000
 c389: t(6)#11 <= 1000
 c391: t(7)#13 <= 1000
Bounds
      y(0)(1)#2 = 0
      y(0)(2)#4 = 0
      y(0)(3)#6 = 0
      y(0)(4)#8 = 0
      y(0)(5)#10 = 0
      y(0)(6)#12 = 0
      y(0)(7)#14 = 0
      y(1)(0)#16 = 0
      y(1)(2)#17 = 0
      y(1)(3)#18 = 0
      y(1)(4)#19 = 0
      y(1)(5)#20 = 0
      y(1)(6)#21 = 0
      y(1)(7)#22 = 0
      y(2)(0)#23 = 0
      y(2)(1)#24 = 0
      y(2)(3)#25 = 0
      y(2)(4)#26 = 0
      y(2)(5)#27 = 0
      y(2)(6)#28 = 0
      y(2)(7)#29 = 0
      y(3)(0)#30 = 0
      y(3)(1)#31 = 0
      y(3)(2)#32 = 0
      y(3)(4)#33 = 0
      y(3)(5)#34 = 0
      y(3)(6)#35 = 0
      y(3)(7)#36 = 0
      y(4)(0)#37 = 0
      y(4)(1)#38 = 0
      y(4)(2)#39 = 0
      y(4)(3)#40 = 0
      y(4)(5)#41 = 0
      y(4)(6)#42 = 0
      y(4)(7)#43 = 0
      y(5)(0)#44 = 0
      y(5)(1)#45 = 0
      y(5)(2)#46 = 0
      y(5)(3)#47 = 0
      y(5)(4)#48 = 0
      y(5)(6)#49 = 0
      y(5)(7)#50 = 0
      y(6)(0)#51 = 0
      y(6)(1)#52 = 0
      y(6)(2)#53 = 0
      y(6)(3)#54 = 0
      y(6)(4)#55 = 0
      y(6)(5)#56 = 0
      y(6)(7)#57 = 0
      y(7)(0)#58 = 0
      y(7)(1)#59 = 0
      y(7)(2)#60 = 0
      y(7)(3)#61 = 0
      y(7)(4)#62 = 0
      y(7)(5)#63 = 0
      y(7)(6)#64 = 0
      y(1)(1)#65 = 0
      y(2)(2)#66 = 0
      y(3)(3)#67 = 0
      y(4)(4)#68 = 0
      y(5)(5)#69 = 0
      y(6)(6)#70 = 0
      y(7)(7)#71 = 0
Generals
 y(0)(1)#2  y(0)(2)#4  y(0)(3)#6  y(0)(4)#8  y(0)(5)#10  y(0)(6)#12 
 y(0)(7)#14  y(1)(0)#16  y(1)(2)#17  y(1)(3)#18  y(1)(4)#19  y(1)(5)#20 
 y(1)(6)#21  y(1)(7)#22  y(2)(0)#23  y(2)(1)#24  y(2)(3)#25  y(2)(4)#26 
 y(2)(5)#27  y(2)(6)#28  y(2)(7)#29  y(3)(0)#30  y(3)(1)#31  y(3)(2)#32 
 y(3)(4)#33  y(3)(5)#34  y(3)(6)#35  y(3)(7)#36  y(4)(0)#37  y(4)(1)#38 
 y(4)(2)#39  y(4)(3)#40  y(4)(5)#41  y(4)(6)#42  y(4)(7)#43  y(5)(0)#44 
 y(5)(1)#45  y(5)(2)#46  y(5)(3)#47  y(5)(4)#48  y(5)(6)#49  y(5)(7)#50 
 y(6)(0)#51  y(6)(1)#52  y(6)(2)#53  y(6)(3)#54  y(6)(4)#55  y(6)(5)#56 
 y(6)(7)#57  y(7)(0)#58  y(7)(1)#59  y(7)(2)#60  y(7)(3)#61  y(7)(4)#62 
 y(7)(5)#63  y(7)(6)#64  y(1)(1)#65  y(2)(2)#66  y(3)(3)#67  y(4)(4)#68 
 y(5)(5)#69  y(6)(6)#70  y(7)(7)#71 
End
